p cnf 7 27
1 4 -2 0
-7 3 5 -2 0
2 0
-7 -5 -3 0
-2 7 0
4 0
1 -1 0
2 3 4 0
-4 0
5 -5 -3 7 0
2 6 0
-6 -2 0
-3 0
1 3 0
-3 -6 4 5 0
2 -5 5 7 0
-1 0
-7 3 6 0
-6 2 5 -2 0
1 3 4 6 0
-3 2 5 -1 0
2 4 0
-7 2 3 -2 0
-6 6 7 0
1 2 6 0
3 0
-5 -4 -3 7 0
